p cnf 10 20
0 -2 8
0 4
0 4
0 -8 4 -9 -5
0 -7 3 -2 -5
0 -2 -6 3
0 1 -7 -6
0 -5
0 -8 1 -10
0 3 -4 -8
0 -7 2 -5 -1
0 6 -10 -1 -4
0 5 -9 -10
0 -1 -5 -7 4
0 -7 -9 8
0 -5 4 -10 -8
0 -8 4 -5
0 2
0 -10 9
0 -4 2 -6 -1